NAME : LPS-n6-m277
COMMENT : (Lartu-Peter-Santi Plot, instance 1477 out of 39200. 6 customers.)
TYPE : CVRP
DIMENSION : 6
EDGE_WEIGHT_TYPE : EUC_2D
CAPACITY : 141
NODE_COORD_SECTION
 1 75 70
 2 10 4
 3 16 57
 4 45 63
 5 91 70
 6 98 39
DEMAND_SECTION
1 0
2 47
3 49
4 71
5 10
6 49
DEPOT_SECTION
 1
 -1
EOF
